Total weight: 985.7081764271234
Route 1: 0 91 92 95 56 64 83 66 65 82 99 52 87 9 10 53 98 55 6 4 2 100 70 68 61 96 71 93 0 
Route 2: 0 69 88 60 78 17 16 15 11 84 62 67 85 76 51 19 49 20 22 24 57 74 86 90 0 
Route 3: 0 81 54 72 41 44 43 40 36 35 37 38 39 42 1 3 5 45 46 8 7 79 73 47 14 12 13 59 97 75 58 77 0 
Route 4: 0 80 94 50 34 31 29 27 26 28 30 32 33 63 89 18 48 21 23 25 0 
